cases/matpower/case5_dc.m
[warn | PowerModels]: the dc line model is not meant to be used bi-directionally when loss1 > 0, be careful interpreting the results as the dc line losses can now be negative. change loss1 to 0 to avoid this warning
[warn | PowerModels]: active generators found at bus 1, updating to bus type from 1 to 2
[warn | PowerModels]: active generators found at bus 5, updating to bus type from 1 to 2
[warn | PowerModels]: active generators found at bus 3, updating to bus type from 1 to 2
[warn | PowerModels]: the voltage setpoint on generator 5 does not match the value at bus 5
[warn | PowerModels]: the voltage setpoint on generator 2 does not match the value at bus 1
[warn | PowerModels]: the to bus voltage setpoint on dc line 1 does not match the value at bus 5
[info | PowerModels]: removing 1 cost terms from generator 4: [4000.0, 0.0]
[info | PowerModels]: removing 1 cost terms from generator 1: [1400.0, 0.0]
[info | PowerModels]: removing 1 cost terms from generator 5: [1000.0, 0.0]
[info | PowerModels]: removing 1 cost terms from generator 2: [1500.0, 0.0]
[info | PowerModels]: removing 1 cost terms from generator 3: [3000.0, 0.0]
[info | PowerModels]: removing 2 cost terms from dcline 1: [4000.0, 0.0]

******************************************************************************
This program contains Ipopt, a library for large-scale nonlinear optimization.
 Ipopt is released as open source code under the Eclipse Public License (EPL).
         For more information visit http://projects.coin-or.org/Ipopt
******************************************************************************

This is Ipopt version 3.13.2, running with linear solver mumps.
NOTE: Other linear solvers might be more efficient (see Ipopt documentation).

Number of nonzeros in equality constraint Jacobian...:      161
Number of nonzeros in inequality constraint Jacobian.:       48
Number of nonzeros in Lagrangian Hessian.............:      264

Total number of variables............................:       48
                     variables with only lower bounds:        0
                variables with lower and upper bounds:       43
                     variables with only upper bounds:        0
Total number of equality constraints.................:       36
Total number of inequality constraints...............:       24
        inequality constraints with only lower bounds:        6
   inequality constraints with lower and upper bounds:        0
        inequality constraints with only upper bounds:       18

iter    objective    inf_pr   inf_du lg(mu)  ||d||  lg(rg) alpha_du alpha_pr  ls
   0  7.0059989e+02 3.99e+00 4.16e+01  -1.0 0.00e+00    -  0.00e+00 0.00e+00   0
   1  9.1213005e+02 3.94e+00 4.14e+01  -1.0 2.52e+00    -  4.07e-03 1.16e-02h  1
   2  9.2085130e+02 3.91e+00 4.09e+01  -1.0 8.20e+00    -  2.36e-02 8.28e-03h  1
   3  1.3183046e+03 3.76e+00 3.91e+01  -1.0 5.87e+00    -  9.45e-02 3.86e-02h  1
   4  2.1165566e+03 3.48e+00 3.61e+01  -1.0 6.34e+00    -  1.19e-01 7.39e-02h  3
   5  3.1913346e+03 3.10e+00 3.18e+01  -1.0 5.99e+00    -  2.01e-01 1.09e-01h  3
   6  4.4155035e+03 2.66e+00 2.70e+01  -1.0 6.54e+00    -  5.63e-01 1.43e-01h  3
   7  5.3685279e+03 2.30e+00 2.76e+01  -1.0 8.49e+00    -  4.34e-01 1.34e-01h  3
   8  6.7950344e+03 1.77e+00 3.11e+01  -1.0 1.01e+01    -  1.00e+00 2.31e-01h  2
   9  8.4049877e+03 1.21e+00 2.23e+01  -1.0 9.76e+00    -  9.84e-01 3.17e-01h  1
iter    objective    inf_pr   inf_du lg(mu)  ||d||  lg(rg) alpha_du alpha_pr  ls
  10  8.5051882e+03 1.19e+00 2.99e+01  -1.0 1.91e+01    -  3.50e-02 1.58e-02h  1
  11  1.2979801e+04 6.35e-01 8.77e+01  -1.0 3.24e+00    -  3.13e-03 4.66e-01h  1
  12  1.8200270e+04 1.66e-02 1.16e+01  -1.0 1.82e+00    -  8.42e-01 1.00e+00h  1
  13  1.8191582e+04 1.11e-02 1.27e+00  -1.0 1.97e+00    -  1.00e+00 1.00e+00h  1
  14  1.8201598e+04 6.17e-04 2.75e-01  -1.0 3.56e-01    -  1.00e+00 1.00e+00h  1
  15  1.8168200e+04 5.09e-03 1.36e-01  -1.7 7.54e-01    -  1.00e+00 1.00e+00f  1
  16  1.8158406e+04 3.64e-03 1.27e+00  -2.5 7.74e-01    -  1.00e+00 8.22e-01h  1
  17  1.8157505e+04 2.76e-04 6.04e-02  -2.5 3.57e-01    -  1.00e+00 1.00e+00h  1
  18  1.8157482e+04 5.26e-06 3.41e-03  -2.5 6.18e-02    -  1.00e+00 1.00e+00h  1
  19  1.8156309e+04 2.24e-05 1.01e+00  -3.8 1.30e-01    -  1.00e+00 9.27e-01h  1
iter    objective    inf_pr   inf_du lg(mu)  ||d||  lg(rg) alpha_du alpha_pr  ls
  20  1.8156233e+04 1.01e-06 1.32e-02  -3.8 2.33e-02    -  1.00e+00 1.00e+00h  1
  21  1.8156234e+04 7.62e-10 2.63e-04  -3.8 7.13e-04    -  1.00e+00 1.00e+00h  1
  22  1.8156170e+04 1.80e-07 2.34e-01  -5.7 8.62e-03    -  1.00e+00 9.66e-01f  1
  23  1.8156168e+04 3.18e-10 3.65e-05  -5.7 4.98e-04    -  1.00e+00 1.00e+00f  1
  24  1.8156168e+04 5.66e-14 9.57e-10  -5.7 9.35e-07    -  1.00e+00 1.00e+00h  1
  25  1.8156168e+04 1.24e-11 1.08e-04  -8.6 1.07e-04    -  1.00e+00 9.99e-01f  1
  26  1.8156168e+04 2.49e-14 2.17e-12  -8.6 1.18e-07    -  1.00e+00 1.00e+00f  1

Number of Iterations....: 26

                                   (scaled)                 (unscaled)
Objective...............:   4.5390418898425816e+02    1.8156167559370326e+04
Dual infeasibility......:   2.1704088958828030e-12    8.6816355835312121e-11
Constraint violation....:   1.6075318853836506e-14    2.4868995751603507e-14
Complementarity.........:   4.9845335801468851e-09    1.9938134320587539e-07
Overall NLP error.......:   4.9845335801468851e-09    1.9938134320587539e-07


Number of objective function evaluations             = 46
Number of objective gradient evaluations             = 27
Number of equality constraint evaluations            = 46
Number of inequality constraint evaluations          = 46
Number of equality constraint Jacobian evaluations   = 27
Number of inequality constraint Jacobian evaluations = 27
Number of Lagrangian Hessian evaluations             = 26
Total CPU secs in IPOPT (w/o function evaluations)   =      2.177
Total CPU secs in NLP function evaluations           =      1.529

EXIT: Optimal Solution Found.
Time to Solution........:4.43929386138916
Final cost..............:
